(set-option :produce-unsat-cores true) ; enable generation of unsat cores
(set-option :produce-models true) ; enable model generation
(set-logic ALL)
(declare-sort var1230 0)
(declare-sort var3954 0)
(declare-sort var2972 0)
(declare-sort void 0)
(declare-sort Iterator 0)
(declare-sort ClassObject 0)
(declare-fun jjmatchedKind/929889025 (var1230) Int)
(declare-fun image/929889025 (var1230) String)
(declare-fun input_stream/929889025 (var1230) var2972)
(declare-fun jjimageLen/929889025 (var1230) Int)
(declare-fun jjmatchedPos/929889025 (var1230) Int)
(declare-fun lengthOfMatch/929889025 (var1230) Int)
(declare-fun GetSuffix/1820013612 (var2972 Int) (Array Int Int))
(declare-fun append/109888945 (String (Array Int Int)) String)
(declare-fun var1230_getTagNamingConvention/-984790029 (var3954 Int) Int)
(declare-fun handleTagSyntaxAndSwitch/-581163388 (var1230 var3954 Int Int) void)
(declare-const null-var1230 var1230)
(declare-const null-var3954 var3954)
(declare-const var1358 var1230) ; Statement: r0 := @this: freemarker.core.FMParserTokenManager 
(assert (not (= var1358 null-var1230)))
(declare-const var454 var3954) ; Statement: r9 := @parameter0: freemarker.core.Token 
(assert (not (= var454 null-var3954)))
(define-const var2117 Int (jjmatchedKind/929889025 var1358)) ; Statement: $i0 = r0.<freemarker.core.FMParserTokenManager: int jjmatchedKind> 
 ; Statement: tableswitch($i0) {     case 6: goto $r347 = r0.<freemarker.core.FMParserTokenManager: java.lang.StringBuilder image>;     case 7: goto $r344 = r0.<freemarker.core.FMParserTokenManager: java.lang.StringBuilder image>;     case 8: goto $r341 = r0.<freemarker.core.FMParserTokenManager: java.lang.StringBuilder image>;     case 9: goto $r338 = r0.<freemarker.core.FMParserTokenManager: java.lang.StringBuilder image>;     case 10: goto $r335 = r0.<freemarker.core.FMParserTokenManager: java.lang.StringBuilder image>;     case 11: goto $r332 = r0.<freemarker.core.FMParserTokenManager: java.lang.StringBuilder image>;     case 12: goto return;     case 13: goto $r329 = r0.<freemarker.core.FMParserTokenManager: java.lang.StringBuilder image>;     case 14: goto $r326 = r0.<freemarker.core.FMParserTokenManager: java.lang.StringBuilder image>;     case 15: goto $r323 = r0.<freemarker.core.FMParserTokenManager: java.lang.StringBuilder image>;     case 16: goto $r320 = r0.<freemarker.core.FMParserTokenManager: java.lang.StringBuilder image>;     case 17: goto $r317 = r0.<freemarker.core.FMParserTokenManager: java.lang.StringBuilder image>;     case 18: goto $r314 = r0.<freemarker.core.FMParserTokenManager: java.lang.StringBuilder image>;     case 19: goto $r311 = r0.<freemarker.core.FMParserTokenManager: java.lang.StringBuilder image>;     case 20: goto $r308 = r0.<freemarker.core.FMParserTokenManager: java.lang.StringBuilder image>;     case 21: goto $r305 = r0.<freemarker.core.FMParserTokenManager: java.lang.StringBuilder image>;     case 22: goto $r302 = r0.<freemarker.core.FMParserTokenManager: java.lang.StringBuilder image>;     case 23: goto $r299 = r0.<freemarker.core.FMParserTokenManager: java.lang.StringBuilder image>;     case 24: goto $r296 = r0.<freemarker.core.FMParserTokenManager: java.lang.StringBuilder image>;     case 25: goto $r293 = r0.<freemarker.core.FMParserTokenManager: java.lang.StringBuilder image>;     case 26: goto $r290 = r0.<freemarker.core.FMParserTokenManager: java.lang.StringBuilder image>;     case 27: goto $r287 = r0.<freemarker.core.FMParserTokenManager: java.lang.StringBuilder image>;     case 28: goto $r284 = r0.<freemarker.core.FMParserTokenManager: java.lang.StringBuilder image>;     case 29: goto $r281 = r0.<freemarker.core.FMParserTokenManager: java.lang.StringBuilder image>;     case 30: goto $r278 = r0.<freemarker.core.FMParserTokenManager: java.lang.StringBuilder image>;     case 31: goto $r275 = r0.<freemarker.core.FMParserTokenManager: java.lang.StringBuilder image>;     case 32: goto $r272 = r0.<freemarker.core.FMParserTokenManager: java.lang.StringBuilder image>;     case 33: goto $r269 = r0.<freemarker.core.FMParserTokenManager: java.lang.StringBuilder image>;     case 34: goto $r266 = r0.<freemarker.core.FMParserTokenManager: java.lang.StringBuilder image>;     case 35: goto $r263 = r0.<freemarker.core.FMParserTokenManager: java.lang.StringBuilder image>;     case 36: goto $r260 = r0.<freemarker.core.FMParserTokenManager: java.lang.StringBuilder image>;     case 37: goto $r257 = r0.<freemarker.core.FMParserTokenManager: java.lang.StringBuilder image>;     case 38: goto $r254 = r0.<freemarker.core.FMParserTokenManager: java.lang.StringBuilder image>;     case 39: goto $r251 = r0.<freemarker.core.FMParserTokenManager: java.lang.StringBuilder image>;     case 40: goto $r248 = r0.<freemarker.core.FMParserTokenManager: java.lang.StringBuilder image>;     case 41: goto $r245 = r0.<freemarker.core.FMParserTokenManager: java.lang.StringBuilder image>;     case 42: goto $r242 = r0.<freemarker.core.FMParserTokenManager: java.lang.StringBuilder image>;     case 43: goto $r239 = r0.<freemarker.core.FMParserTokenManager: java.lang.StringBuilder image>;     case 44: goto $r236 = r0.<freemarker.core.FMParserTokenManager: java.lang.StringBuilder image>;     case 45: goto $r233 = r0.<freemarker.core.FMParserTokenManager: java.lang.StringBuilder image>;     case 46: goto $r230 = r0.<freemarker.core.FMParserTokenManager: java.lang.StringBuilder image>;     case 47: goto $r227 = r0.<freemarker.core.FMParserTokenManager: java.lang.StringBuilder image>;     case 48: goto $r224 = r0.<freemarker.core.FMParserTokenManager: java.lang.StringBuilder image>;     case 49: goto $r221 = r0.<freemarker.core.FMParserTokenManager: java.lang.StringBuilder image>;     case 50: goto $r218 = r0.<freemarker.core.FMParserTokenManager: java.lang.StringBuilder image>;     case 51: goto $r215 = r0.<freemarker.core.FMParserTokenManager: java.lang.StringBuilder image>;     case 52: goto $r212 = r0.<freemarker.core.FMParserTokenManager: java.lang.StringBuilder image>;     case 53: goto $r209 = r0.<freemarker.core.FMParserTokenManager: java.lang.StringBuilder image>;     case 54: goto $r206 = r0.<freemarker.core.FMParserTokenManager: java.lang.StringBuilder image>;     case 55: goto $r203 = r0.<freemarker.core.FMParserTokenManager: java.lang.StringBuilder image>;     case 56: goto $r200 = r0.<freemarker.core.FMParserTokenManager: java.lang.StringBuilder image>;     case 57: goto $r197 = r0.<freemarker.core.FMParserTokenManager: java.lang.StringBuilder image>;     case 58: goto $r194 = r0.<freemarker.core.FMParserTokenManager: java.lang.StringBuilder image>;     case 59: goto $r191 = r0.<freemarker.core.FMParserTokenManager: java.lang.StringBuilder image>;     case 60: goto $r188 = r0.<freemarker.core.FMParserTokenManager: java.lang.StringBuilder image>;     case 61: goto $r185 = r0.<freemarker.core.FMParserTokenManager: java.lang.StringBuilder image>;     case 62: goto $r182 = r0.<freemarker.core.FMParserTokenManager: java.lang.StringBuilder image>;     case 63: goto $r179 = r0.<freemarker.core.FMParserTokenManager: java.lang.StringBuilder image>;     case 64: goto $r176 = r0.<freemarker.core.FMParserTokenManager: java.lang.StringBuilder image>;     case 65: goto $r173 = r0.<freemarker.core.FMParserTokenManager: java.lang.StringBuilder image>;     case 66: goto $r170 = r0.<freemarker.core.FMParserTokenManager: java.lang.StringBuilder image>;     case 67: goto $r167 = r0.<freemarker.core.FMParserTokenManager: java.lang.StringBuilder image>;     case 68: goto $r164 = r0.<freemarker.core.FMParserTokenManager: java.lang.StringBuilder image>;     case 69: goto $r161 = r0.<freemarker.core.FMParserTokenManager: java.lang.StringBuilder image>;     case 70: goto $r158 = r0.<freemarker.core.FMParserTokenManager: java.lang.StringBuilder image>;     case 71: goto $r155 = r0.<freemarker.core.FMParserTokenManager: java.lang.StringBuilder image>;     case 72: goto $r152 = r0.<freemarker.core.FMParserTokenManager: java.lang.StringBuilder image>;     case 73: goto $r149 = r0.<freemarker.core.FMParserTokenManager: java.lang.StringBuilder image>;     case 74: goto $r146 = r0.<freemarker.core.FMParserTokenManager: java.lang.StringBuilder image>;     case 75: goto $r143 = r0.<freemarker.core.FMParserTokenManager: java.lang.StringBuilder image>;     case 76: goto $r140 = r0.<freemarker.core.FMParserTokenManager: java.lang.StringBuilder image>;     case 77: goto $r137 = r0.<freemarker.core.FMParserTokenManager: java.lang.StringBuilder image>;     case 78: goto $r114 = r0.<freemarker.core.FMParserTokenManager: java.lang.StringBuilder image>;     case 79: goto return;     case 80: goto return;     case 81: goto return;     case 82: goto $r111 = r0.<freemarker.core.FMParserTokenManager: java.lang.StringBuilder image>;     case 83: goto $r106 = r0.<freemarker.core.FMParserTokenManager: java.lang.StringBuilder image>;     case 84: goto $r101 = r0.<freemarker.core.FMParserTokenManager: java.lang.StringBuilder image>;     case 85: goto return;     case 86: goto return;     case 87: goto return;     case 88: goto return;     case 89: goto return;     case 90: goto return;     case 91: goto return;     case 92: goto return;     case 93: goto return;     case 94: goto return;     case 95: goto return;     case 96: goto return;     case 97: goto return;     case 98: goto return;     case 99: goto return;     case 100: goto return;     case 101: goto return;     case 102: goto return;     case 103: goto return;     case 104: goto return;     case 105: goto return;     case 106: goto return;     case 107: goto return;     case 108: goto return;     case 109: goto return;     case 110: goto return;     case 111: goto return;     case 112: goto return;     case 113: goto return;     case 114: goto return;     case 115: goto return;     case 116: goto return;     case 117: goto return;     case 118: goto return;     case 119: goto return;     case 120: goto return;     case 121: goto return;     case 122: goto return;     case 123: goto return;     case 124: goto return;     case 125: goto return;     case 126: goto return;     case 127: goto return;     case 128: goto return;     case 129: goto return;     case 130: goto return;     case 131: goto return;     case 132: goto return;     case 133: goto $r96 = r0.<freemarker.core.FMParserTokenManager: java.lang.StringBuilder image>;     case 134: goto $r91 = r0.<freemarker.core.FMParserTokenManager: java.lang.StringBuilder image>;     case 135: goto $r86 = r0.<freemarker.core.FMParserTokenManager: java.lang.StringBuilder image>;     case 136: goto $r81 = r0.<freemarker.core.FMParserTokenManager: java.lang.StringBuilder image>;     case 137: goto $r76 = r0.<freemarker.core.FMParserTokenManager: java.lang.StringBuilder image>;     case 138: goto $r70 = r0.<freemarker.core.FMParserTokenManager: java.lang.StringBuilder image>;     case 139: goto return;     case 140: goto return;     case 141: goto return;     case 142: goto $r64 = r0.<freemarker.core.FMParserTokenManager: java.lang.StringBuilder image>;     case 143: goto $r40 = r0.<freemarker.core.FMParserTokenManager: java.lang.StringBuilder image>;     case 144: goto return;     case 145: goto return;     case 146: goto return;     case 147: goto return;     case 148: goto $r37 = r0.<freemarker.core.FMParserTokenManager: java.lang.StringBuilder image>;     case 149: goto $r25 = r0.<freemarker.core.FMParserTokenManager: java.lang.StringBuilder image>;     case 150: goto return;     case 151: goto return;     case 152: goto return;     case 153: goto return;     case 154: goto $r15 = r0.<freemarker.core.FMParserTokenManager: java.lang.StringBuilder image>;     case 155: goto $r1 = r0.<freemarker.core.FMParserTokenManager: java.lang.StringBuilder image>;     default: goto return; } 
(assert (and (= var2117 29) (and (not (= var2117 28)) (and (not (= var2117 27)) (and (not (= var2117 26)) (and (not (= var2117 25)) (and (not (= var2117 24)) (and (not (= var2117 23)) (and (not (= var2117 22)) (and (not (= var2117 21)) (and (not (= var2117 20)) (and (not (= var2117 19)) (and (not (= var2117 18)) (and (not (= var2117 17)) (and (not (= var2117 16)) (and (not (= var2117 15)) (and (not (= var2117 14)) (and (not (= var2117 13)) (and (not (= var2117 12)) (and (not (= var2117 11)) (and (not (= var2117 10)) (and (not (= var2117 9)) (and (not (= var2117 8)) (and (not (= var2117 7)) (and (not (= var2117 6)) true))))))))))))))))))))))))) ; Intersect: Cond: $i0 == 29  and Intersect: Negate: Cond: $i0 == 28   and Intersect: Negate: Cond: $i0 == 27   and Intersect: Negate: Cond: $i0 == 26   and Intersect: Negate: Cond: $i0 == 25   and Intersect: Negate: Cond: $i0 == 24   and Intersect: Negate: Cond: $i0 == 23   and Intersect: Negate: Cond: $i0 == 22   and Intersect: Negate: Cond: $i0 == 21   and Intersect: Negate: Cond: $i0 == 20   and Intersect: Negate: Cond: $i0 == 19   and Intersect: Negate: Cond: $i0 == 18   and Intersect: Negate: Cond: $i0 == 17   and Intersect: Negate: Cond: $i0 == 16   and Intersect: Negate: Cond: $i0 == 15   and Intersect: Negate: Cond: $i0 == 14   and Intersect: Negate: Cond: $i0 == 13   and Intersect: Negate: Cond: $i0 == 12   and Intersect: Negate: Cond: $i0 == 11   and Intersect: Negate: Cond: $i0 == 10   and Intersect: Negate: Cond: $i0 == 9   and Intersect: Negate: Cond: $i0 == 8   and Intersect: Negate: Cond: $i0 == 7   and Intersect: Negate: Cond: $i0 == 6   and Non Conditional                        
(define-const var3178 String (image/929889025 var1358)) ; Statement: $r281 = r0.<freemarker.core.FMParserTokenManager: java.lang.StringBuilder image> 
(define-const var3971 var2972 (input_stream/929889025 var1358)) ; Statement: $r282 = r0.<freemarker.core.FMParserTokenManager: freemarker.core.SimpleCharStream input_stream> 
(define-const var1169 Int (jjimageLen/929889025 var1358)) ; Statement: $i297 = r0.<freemarker.core.FMParserTokenManager: int jjimageLen> 
(define-const var948 Int (jjmatchedPos/929889025 var1358)) ; Statement: $i295 = r0.<freemarker.core.FMParserTokenManager: int jjmatchedPos> 
(define-const var2623 Int (+ var948 1)) ; Statement: $i296 = $i295 + 1 
(declare-const var1358!1 var1230)
(assert (not (= var1358!1 null-var1230)))
(assert (= (lengthOfMatch/929889025 var1358!1) var2623)) ; Statement: r0.<freemarker.core.FMParserTokenManager: int lengthOfMatch> = $i296 
(define-const var3220 Int (+ var1169 var2623)) ; Statement: $i298 = $i297 + $i296 
(assert true)
(define-const var3571 (Array Int Int) (GetSuffix/1820013612 var3971 var3220)) ; Statement: $r283 = virtualinvoke $r282.<freemarker.core.SimpleCharStream: char[] GetSuffix(int)>($i298) 
(assert true)
;(assert (append/109888945 var3178 var3571)) ; Statement: virtualinvoke $r281.<java.lang.StringBuilder: java.lang.StringBuilder append(char[])>($r283) 
(declare-const var3178!1 String)
(assert (str.prefixof var3178 var3178!1))
(define-const var3757 Int (var1230_getTagNamingConvention/-984790029 var454 6)) ; Statement: $i299 = staticinvoke <freemarker.core.FMParserTokenManager: int getTagNamingConvention(freemarker.core.Token,int)>(r9, 6) 
(assert true)
;(assert (handleTagSyntaxAndSwitch/-581163388 var1358!1 var454 var3757 2)) ; Statement: specialinvoke r0.<freemarker.core.FMParserTokenManager: void handleTagSyntaxAndSwitch(freemarker.core.Token,int,int)>(r9, $i299, 2) 

(declare-const var1358!2 var1230)
(declare-const var454!1 var3954)
(declare-const var3757!1 Int)
(declare-const var2059 Int)
 ; Statement: goto [?= return] 
(assert true) ; Non Conditional
 ; Statement: return 
(check-sat)
(get-model)
(get-unsat-core)
; {jjmatchedKind/929889025=([freemarker.core.FMParserTokenManager], int), image/929889025=([freemarker.core.FMParserTokenManager], java.lang.StringBuilder), input_stream/929889025=([freemarker.core.FMParserTokenManager], freemarker.core.SimpleCharStream), jjimageLen/929889025=([freemarker.core.FMParserTokenManager], int), jjmatchedPos/929889025=([freemarker.core.FMParserTokenManager], int), lengthOfMatch/929889025=([freemarker.core.FMParserTokenManager], int), GetSuffix/1820013612=([freemarker.core.SimpleCharStream, int], char[]), append/109888945=([java.lang.StringBuilder, char[]], java.lang.StringBuilder), var1230_getTagNamingConvention/-984790029=([freemarker.core.Token, int], int), handleTagSyntaxAndSwitch/-581163388=([freemarker.core.FMParserTokenManager, freemarker.core.Token, int, int], void)}
; {var1230=freemarker.core.FMParserTokenManager, var1358=r0, var3954=freemarker.core.Token, var454=r9, var2117=$i0, var3178=$r281, var2972=freemarker.core.SimpleCharStream, var3971=$r282, var1169=$i297, var948=$i295, var2623=$i296, var3220=$i298, var3571=$r283, var3757=$i299, var2059=2}
; {freemarker.core.FMParserTokenManager=var1230, r0=var1358, freemarker.core.Token=var3954, r9=var454, $i0=var2117, $r281=var3178, freemarker.core.SimpleCharStream=var2972, $r282=var3971, $i297=var1169, $i295=var948, $i296=var2623, $i298=var3220, $r283=var3571, $i299=var3757, 2=var2059}
;seq <java.lang.StringBuilder: java.lang.StringBuilder append(char[])>
;cnt {"<java.lang.StringBuilder: java.lang.StringBuilder append(char[])>": 1}
;stmts r0 := @this: freemarker.core.FMParserTokenManager;	r9 := @parameter0: freemarker.core.Token;	$i0 = r0.<freemarker.core.FMParserTokenManager: int jjmatchedKind>;	tableswitch($i0) {     case 6: goto $r347 = r0.<freemarker.core.FMParserTokenManager: java.lang.StringBuilder image>;     case 7: goto $r344 = r0.<freemarker.core.FMParserTokenManager: java.lang.StringBuilder image>;     case 8: goto $r341 = r0.<freemarker.core.FMParserTokenManager: java.lang.StringBuilder image>;     case 9: goto $r338 = r0.<freemarker.core.FMParserTokenManager: java.lang.StringBuilder image>;     case 10: goto $r335 = r0.<freemarker.core.FMParserTokenManager: java.lang.StringBuilder image>;     case 11: goto $r332 = r0.<freemarker.core.FMParserTokenManager: java.lang.StringBuilder image>;     case 12: goto return;     case 13: goto $r329 = r0.<freemarker.core.FMParserTokenManager: java.lang.StringBuilder image>;     case 14: goto $r326 = r0.<freemarker.core.FMParserTokenManager: java.lang.StringBuilder image>;     case 15: goto $r323 = r0.<freemarker.core.FMParserTokenManager: java.lang.StringBuilder image>;     case 16: goto $r320 = r0.<freemarker.core.FMParserTokenManager: java.lang.StringBuilder image>;     case 17: goto $r317 = r0.<freemarker.core.FMParserTokenManager: java.lang.StringBuilder image>;     case 18: goto $r314 = r0.<freemarker.core.FMParserTokenManager: java.lang.StringBuilder image>;     case 19: goto $r311 = r0.<freemarker.core.FMParserTokenManager: java.lang.StringBuilder image>;     case 20: goto $r308 = r0.<freemarker.core.FMParserTokenManager: java.lang.StringBuilder image>;     case 21: goto $r305 = r0.<freemarker.core.FMParserTokenManager: java.lang.StringBuilder image>;     case 22: goto $r302 = r0.<freemarker.core.FMParserTokenManager: java.lang.StringBuilder image>;     case 23: goto $r299 = r0.<freemarker.core.FMParserTokenManager: java.lang.StringBuilder image>;     case 24: goto $r296 = r0.<freemarker.core.FMParserTokenManager: java.lang.StringBuilder image>;     case 25: goto $r293 = r0.<freemarker.core.FMParserTokenManager: java.lang.StringBuilder image>;     case 26: goto $r290 = r0.<freemarker.core.FMParserTokenManager: java.lang.StringBuilder image>;     case 27: goto $r287 = r0.<freemarker.core.FMParserTokenManager: java.lang.StringBuilder image>;     case 28: goto $r284 = r0.<freemarker.core.FMParserTokenManager: java.lang.StringBuilder image>;     case 29: goto $r281 = r0.<freemarker.core.FMParserTokenManager: java.lang.StringBuilder image>;     case 30: goto $r278 = r0.<freemarker.core.FMParserTokenManager: java.lang.StringBuilder image>;     case 31: goto $r275 = r0.<freemarker.core.FMParserTokenManager: java.lang.StringBuilder image>;     case 32: goto $r272 = r0.<freemarker.core.FMParserTokenManager: java.lang.StringBuilder image>;     case 33: goto $r269 = r0.<freemarker.core.FMParserTokenManager: java.lang.StringBuilder image>;     case 34: goto $r266 = r0.<freemarker.core.FMParserTokenManager: java.lang.StringBuilder image>;     case 35: goto $r263 = r0.<freemarker.core.FMParserTokenManager: java.lang.StringBuilder image>;     case 36: goto $r260 = r0.<freemarker.core.FMParserTokenManager: java.lang.StringBuilder image>;     case 37: goto $r257 = r0.<freemarker.core.FMParserTokenManager: java.lang.StringBuilder image>;     case 38: goto $r254 = r0.<freemarker.core.FMParserTokenManager: java.lang.StringBuilder image>;     case 39: goto $r251 = r0.<freemarker.core.FMParserTokenManager: java.lang.StringBuilder image>;     case 40: goto $r248 = r0.<freemarker.core.FMParserTokenManager: java.lang.StringBuilder image>;     case 41: goto $r245 = r0.<freemarker.core.FMParserTokenManager: java.lang.StringBuilder image>;     case 42: goto $r242 = r0.<freemarker.core.FMParserTokenManager: java.lang.StringBuilder image>;     case 43: goto $r239 = r0.<freemarker.core.FMParserTokenManager: java.lang.StringBuilder image>;     case 44: goto $r236 = r0.<freemarker.core.FMParserTokenManager: java.lang.StringBuilder image>;     case 45: goto $r233 = r0.<freemarker.core.FMParserTokenManager: java.lang.StringBuilder image>;     case 46: goto $r230 = r0.<freemarker.core.FMParserTokenManager: java.lang.StringBuilder image>;     case 47: goto $r227 = r0.<freemarker.core.FMParserTokenManager: java.lang.StringBuilder image>;     case 48: goto $r224 = r0.<freemarker.core.FMParserTokenManager: java.lang.StringBuilder image>;     case 49: goto $r221 = r0.<freemarker.core.FMParserTokenManager: java.lang.StringBuilder image>;     case 50: goto $r218 = r0.<freemarker.core.FMParserTokenManager: java.lang.StringBuilder image>;     case 51: goto $r215 = r0.<freemarker.core.FMParserTokenManager: java.lang.StringBuilder image>;     case 52: goto $r212 = r0.<freemarker.core.FMParserTokenManager: java.lang.StringBuilder image>;     case 53: goto $r209 = r0.<freemarker.core.FMParserTokenManager: java.lang.StringBuilder image>;     case 54: goto $r206 = r0.<freemarker.core.FMParserTokenManager: java.lang.StringBuilder image>;     case 55: goto $r203 = r0.<freemarker.core.FMParserTokenManager: java.lang.StringBuilder image>;     case 56: goto $r200 = r0.<freemarker.core.FMParserTokenManager: java.lang.StringBuilder image>;     case 57: goto $r197 = r0.<freemarker.core.FMParserTokenManager: java.lang.StringBuilder image>;     case 58: goto $r194 = r0.<freemarker.core.FMParserTokenManager: java.lang.StringBuilder image>;     case 59: goto $r191 = r0.<freemarker.core.FMParserTokenManager: java.lang.StringBuilder image>;     case 60: goto $r188 = r0.<freemarker.core.FMParserTokenManager: java.lang.StringBuilder image>;     case 61: goto $r185 = r0.<freemarker.core.FMParserTokenManager: java.lang.StringBuilder image>;     case 62: goto $r182 = r0.<freemarker.core.FMParserTokenManager: java.lang.StringBuilder image>;     case 63: goto $r179 = r0.<freemarker.core.FMParserTokenManager: java.lang.StringBuilder image>;     case 64: goto $r176 = r0.<freemarker.core.FMParserTokenManager: java.lang.StringBuilder image>;     case 65: goto $r173 = r0.<freemarker.core.FMParserTokenManager: java.lang.StringBuilder image>;     case 66: goto $r170 = r0.<freemarker.core.FMParserTokenManager: java.lang.StringBuilder image>;     case 67: goto $r167 = r0.<freemarker.core.FMParserTokenManager: java.lang.StringBuilder image>;     case 68: goto $r164 = r0.<freemarker.core.FMParserTokenManager: java.lang.StringBuilder image>;     case 69: goto $r161 = r0.<freemarker.core.FMParserTokenManager: java.lang.StringBuilder image>;     case 70: goto $r158 = r0.<freemarker.core.FMParserTokenManager: java.lang.StringBuilder image>;     case 71: goto $r155 = r0.<freemarker.core.FMParserTokenManager: java.lang.StringBuilder image>;     case 72: goto $r152 = r0.<freemarker.core.FMParserTokenManager: java.lang.StringBuilder image>;     case 73: goto $r149 = r0.<freemarker.core.FMParserTokenManager: java.lang.StringBuilder image>;     case 74: goto $r146 = r0.<freemarker.core.FMParserTokenManager: java.lang.StringBuilder image>;     case 75: goto $r143 = r0.<freemarker.core.FMParserTokenManager: java.lang.StringBuilder image>;     case 76: goto $r140 = r0.<freemarker.core.FMParserTokenManager: java.lang.StringBuilder image>;     case 77: goto $r137 = r0.<freemarker.core.FMParserTokenManager: java.lang.StringBuilder image>;     case 78: goto $r114 = r0.<freemarker.core.FMParserTokenManager: java.lang.StringBuilder image>;     case 79: goto return;     case 80: goto return;     case 81: goto return;     case 82: goto $r111 = r0.<freemarker.core.FMParserTokenManager: java.lang.StringBuilder image>;     case 83: goto $r106 = r0.<freemarker.core.FMParserTokenManager: java.lang.StringBuilder image>;     case 84: goto $r101 = r0.<freemarker.core.FMParserTokenManager: java.lang.StringBuilder image>;     case 85: goto return;     case 86: goto return;     case 87: goto return;     case 88: goto return;     case 89: goto return;     case 90: goto return;     case 91: goto return;     case 92: goto return;     case 93: goto return;     case 94: goto return;     case 95: goto return;     case 96: goto return;     case 97: goto return;     case 98: goto return;     case 99: goto return;     case 100: goto return;     case 101: goto return;     case 102: goto return;     case 103: goto return;     case 104: goto return;     case 105: goto return;     case 106: goto return;     case 107: goto return;     case 108: goto return;     case 109: goto return;     case 110: goto return;     case 111: goto return;     case 112: goto return;     case 113: goto return;     case 114: goto return;     case 115: goto return;     case 116: goto return;     case 117: goto return;     case 118: goto return;     case 119: goto return;     case 120: goto return;     case 121: goto return;     case 122: goto return;     case 123: goto return;     case 124: goto return;     case 125: goto return;     case 126: goto return;     case 127: goto return;     case 128: goto return;     case 129: goto return;     case 130: goto return;     case 131: goto return;     case 132: goto return;     case 133: goto $r96 = r0.<freemarker.core.FMParserTokenManager: java.lang.StringBuilder image>;     case 134: goto $r91 = r0.<freemarker.core.FMParserTokenManager: java.lang.StringBuilder image>;     case 135: goto $r86 = r0.<freemarker.core.FMParserTokenManager: java.lang.StringBuilder image>;     case 136: goto $r81 = r0.<freemarker.core.FMParserTokenManager: java.lang.StringBuilder image>;     case 137: goto $r76 = r0.<freemarker.core.FMParserTokenManager: java.lang.StringBuilder image>;     case 138: goto $r70 = r0.<freemarker.core.FMParserTokenManager: java.lang.StringBuilder image>;     case 139: goto return;     case 140: goto return;     case 141: goto return;     case 142: goto $r64 = r0.<freemarker.core.FMParserTokenManager: java.lang.StringBuilder image>;     case 143: goto $r40 = r0.<freemarker.core.FMParserTokenManager: java.lang.StringBuilder image>;     case 144: goto return;     case 145: goto return;     case 146: goto return;     case 147: goto return;     case 148: goto $r37 = r0.<freemarker.core.FMParserTokenManager: java.lang.StringBuilder image>;     case 149: goto $r25 = r0.<freemarker.core.FMParserTokenManager: java.lang.StringBuilder image>;     case 150: goto return;     case 151: goto return;     case 152: goto return;     case 153: goto return;     case 154: goto $r15 = r0.<freemarker.core.FMParserTokenManager: java.lang.StringBuilder image>;     case 155: goto $r1 = r0.<freemarker.core.FMParserTokenManager: java.lang.StringBuilder image>;     default: goto return; };	$r281 = r0.<freemarker.core.FMParserTokenManager: java.lang.StringBuilder image>;	$r282 = r0.<freemarker.core.FMParserTokenManager: freemarker.core.SimpleCharStream input_stream>;	$i297 = r0.<freemarker.core.FMParserTokenManager: int jjimageLen>;	$i295 = r0.<freemarker.core.FMParserTokenManager: int jjmatchedPos>;	$i296 = $i295 + 1;	r0.<freemarker.core.FMParserTokenManager: int lengthOfMatch> = $i296;	$i298 = $i297 + $i296;	$r283 = virtualinvoke $r282.<freemarker.core.SimpleCharStream: char[] GetSuffix(int)>($i298);	virtualinvoke $r281.<java.lang.StringBuilder: java.lang.StringBuilder append(char[])>($r283);	$i299 = staticinvoke <freemarker.core.FMParserTokenManager: int getTagNamingConvention(freemarker.core.Token,int)>(r9, 6);	specialinvoke r0.<freemarker.core.FMParserTokenManager: void handleTagSyntaxAndSwitch(freemarker.core.Token,int,int)>(r9, $i299, 2);	goto [?= return];	return
;block_num 3